(set-logic BV) (define-fun origCir ((n162 Bool) (n205 Bool) (n250 Bool) (n247 Bool)) Bool (not (and (not (and n250 (and n205 n162))) n247))) (synth-fun skel ((n162 Bool) (n205 Bool) (n250 Bool) (n247 Bool)) Bool) (declare-var n162 Bool) (declare-var n205 Bool) (declare-var n250 Bool) (declare-var n247 Bool) (constraint (= (origCir n162 n205 n250 n247) (skel n162 n205 n250 n247))) (check-synth)
